500
1000
300
300
299
299
299
298
298
297
296
296
296
296
295
295
293
293
293
292
292
292
292
291
291
291
290
290
289
289
289
289
289
288
288
287
287
287
287
286
286
286
285
285
285
284
284
283
283
282
281
281
280
280
279
279
279
278
278
277
277
277
276
276
276
275
274
274
274
274
273
273
273
272
272
271
270
270
269
269
269
269
267
267
266
266
265
265
265
264
264
263
263
262
262
262
262
261
261
261
260
259
259
259
258
257
255
255
254
254
254
253
253
253
252
252
252
251
251
251
249
248
248
248
247
247
246
245
244
244
244
244
243
243
243
242
241
239
239
239
238
237
236
236
236
236
235
235
233
233
233
233
232
232
232
232
232
230
230
230
230
229
229
229
229
229
228
228
228
226
226
226
226
226
226
225
225
224
224
224
224
224
224
223
222
222
221
221
221
221
221
221
221
220
220
220
220
219
218
218
218
217
217
217
217
216
216
216
215
214
214
213
213
213
213
213
213
213
212
211
211
210
210
210
210
210
209
209
209
208
208
208
207
207
207
207
206
205
205
205
205
205
204
204
204
204
204
204
203
203
203
202
202
202
201
200
200
199
199
199
198
198
198
197
197
197
197
196
195
194
193
193
192
192
192
191
191
190
190
190
190
190
189
189
188
187
187
187
187
187
186
185
184
183
183
182
180
180
179
179
179
178
178
177
177
176
176
175
175
175
175
174
174
173
173
173
172
172
171
170
170
170
170
169
168
168
168
168
168
167
167
166
166
165
165
165
165
165
164
164
164
163
162
162
161
161
161
161
160
160
160
160
160
159
157
157
157
157
156
156
156
156
155
155
155
155
154
154
154
153
152
151
150
150
149
149
148
148
148
148
147
147
146
146
146
145
145
144
144
143
142
142
142
141
141
140
140
139
139
137
137
137
137
137
136
136
135
135
135
134
133
133
132
132
132
132
130
130
129
129
129
129
128
128
128
128
127
127
125
125
125
125
125
124
124
124
123
123
122
122
122
120
120
120
120
120
120
119
119
119
118
118
117
117
117
117
117
116
116
115
115
114
114
114
114
114
113
113
113
113
113
112
112
112
111
111
110
110
110
109
109
109
108
108
108
108
108
107
106
106
106
105
105
105
105
104
104
102
102
102
102
102
